p cnf 721 2468
1 2 3 4 0
-1 -2 0
-1 -3 0
-1 -4 0
-2 -3 0
-2 -4 0
-3 -4 0
5 -6 -7 0
6 -5 -7 0
-5 -6 7 0
6 5 7 0
-1 -7 0
6 -5 -8 0
5 -6 -8 0
8 -6 -5 0
8 6 5 0
-2 8 0
-6 9 0
-5 9 0
6 5 -9 0
6 -9 -10 0
-6 9 -10 0
-6 -9 10 0
6 9 10 0
-3 10 0
5 11 0
6 11 0
-5 -6 -11 0
-6 11 -12 0
6 -11 -12 0
12 -11 -6 0
6 11 12 0
-4 -12 0
13 -14 -15 0
14 -13 -15 0
-13 -14 15 0
14 13 15 0
-1 -15 0
14 -16 -17 0
16 -14 -17 0
17 -14 -16 0
17 14 16 0
-2 17 0
-13 18 0
-16 18 0
-19 18 0
-20 18 0
-21 18 0
-22 18 0
-23 18 0
24 0
14 -18 -25 0
-14 18 -25 0
-14 -18 25 0
14 18 25 0
-3 25 0
13 26 0
16 26 0
19 26 0
20 26 0
21 26 0
22 26 0
23 26 0
-27 0
-14 26 -28 0
14 -26 -28 0
28 -26 -14 0
14 26 28 0
-4 -28 0
16 -29 -30 0
29 -16 -30 0
-16 -29 30 0
16 29 30 0
-1 -30 0
29 -19 -31 0
19 -29 -31 0
31 -29 -19 0
31 29 19 0
-2 31 0
-16 32 0
-19 32 0
-20 32 0
-21 32 0
-22 32 0
-23 32 0
16 19 20 21 22 23 -32 0
29 -32 -33 0
-29 32 -33 0
-29 -32 33 0
29 32 33 0
-3 33 0
16 34 0
19 34 0
20 34 0
21 34 0
22 34 0
23 34 0
-35 0
-29 34 -36 0
29 -34 -36 0
36 -34 -29 0
29 34 36 0
-4 -36 0
19 -37 -38 0
37 -19 -38 0
-19 -37 38 0
19 37 38 0
-1 -38 0
37 -20 -39 0
20 -37 -39 0
39 -37 -20 0
39 37 20 0
-2 39 0
-19 40 0
-20 40 0
-21 40 0
-22 40 0
-23 40 0
19 20 21 22 23 -40 0
37 -40 -41 0
-37 40 -41 0
-37 -40 41 0
37 40 41 0
-3 41 0
19 42 0
20 42 0
21 42 0
22 42 0
23 42 0
-43 0
-37 42 -44 0
37 -42 -44 0
44 -42 -37 0
37 42 44 0
-4 -44 0
20 -45 -46 0
45 -20 -46 0
-20 -45 46 0
20 45 46 0
-1 -46 0
45 -21 -47 0
21 -45 -47 0
47 -45 -21 0
47 45 21 0
-2 47 0
45 -40 -48 0
40 -45 -48 0
-40 -45 48 0
45 40 48 0
-3 48 0
42 -45 -49 0
45 -42 -49 0
49 -42 -45 0
45 42 49 0
-4 -49 0
21 -50 -51 0
50 -21 -51 0
-21 -50 51 0
21 50 51 0
-1 -51 0
50 -22 -52 0
22 -50 -52 0
52 -50 -22 0
52 50 22 0
-2 52 0
50 -40 -53 0
40 -50 -53 0
-40 -50 53 0
50 40 53 0
-3 53 0
42 -50 -54 0
50 -42 -54 0
54 -42 -50 0
50 42 54 0
-4 -54 0
22 -55 -56 0
55 -22 -56 0
-22 -55 56 0
22 55 56 0
-1 -56 0
55 -23 -57 0
23 -55 -57 0
57 -55 -23 0
57 55 23 0
-2 57 0
55 -40 -58 0
40 -55 -58 0
-40 -55 58 0
55 40 58 0
-3 58 0
42 -55 -59 0
55 -42 -59 0
59 -42 -55 0
55 42 59 0
-4 -59 0
23 -60 -61 0
60 -23 -61 0
-23 -60 61 0
23 60 61 0
-1 -61 0
-19 60 -62 0
19 -60 -62 0
62 -60 -19 0
62 60 19 0
-2 62 0
-23 63 0
-37 63 0
23 37 -63 0
60 -63 -64 0
-60 63 -64 0
-60 -63 64 0
60 63 64 0
-3 64 0
23 65 0
37 65 0
-23 -37 -65 0
-60 65 -66 0
60 -65 -66 0
66 -65 -60 0
60 65 66 0
-4 -66 0
67 -68 -69 0
68 -67 -69 0
-67 -68 69 0
68 67 69 0
-1 -69 0
68 -70 -71 0
70 -68 -71 0
71 -68 -70 0
71 68 70 0
-2 71 0
-67 72 0
-70 72 0
-73 72 0
-74 72 0
-75 72 0
-76 72 0
-77 72 0
-78 72 0
-79 72 0
-80 72 0
-81 72 0
-82 72 0
83 0
68 -72 -84 0
-68 72 -84 0
-68 -72 84 0
68 72 84 0
-3 84 0
67 85 0
70 85 0
73 85 0
74 85 0
75 85 0
76 85 0
77 85 0
78 85 0
79 85 0
80 85 0
81 85 0
82 85 0
-86 0
-68 85 -87 0
68 -85 -87 0
87 -85 -68 0
68 85 87 0
-4 -87 0
70 -88 -89 0
88 -70 -89 0
-70 -88 89 0
70 88 89 0
-1 -89 0
88 -73 -90 0
73 -88 -90 0
90 -88 -73 0
90 88 73 0
-2 90 0
-70 91 0
-73 91 0
-74 91 0
-75 91 0
-76 91 0
-77 91 0
-78 91 0
-79 91 0
-80 91 0
-81 91 0
-82 91 0
92 0
88 -91 -93 0
-88 91 -93 0
-88 -91 93 0
88 91 93 0
-3 93 0
70 94 0
73 94 0
74 94 0
75 94 0
76 94 0
77 94 0
78 94 0
79 94 0
80 94 0
81 94 0
82 94 0
-95 0
-88 94 -96 0
88 -94 -96 0
96 -94 -88 0
88 94 96 0
-4 -96 0
73 -97 -98 0
97 -73 -98 0
-73 -97 98 0
73 97 98 0
-1 -98 0
97 -74 -99 0
74 -97 -99 0
99 -97 -74 0
99 97 74 0
-2 99 0
-73 100 0
-74 100 0
-75 100 0
-76 100 0
-77 100 0
-78 100 0
-79 100 0
-80 100 0
-81 100 0
-82 100 0
101 0
97 -100 -102 0
-97 100 -102 0
-97 -100 102 0
97 100 102 0
-3 102 0
73 103 0
74 103 0
75 103 0
76 103 0
77 103 0
78 103 0
79 103 0
80 103 0
81 103 0
82 103 0
-104 0
-97 103 -105 0
97 -103 -105 0
105 -103 -97 0
97 103 105 0
-4 -105 0
74 -106 -107 0
106 -74 -107 0
-74 -106 107 0
74 106 107 0
-1 -107 0
106 -75 -108 0
75 -106 -108 0
108 -106 -75 0
108 106 75 0
-2 108 0
-74 109 0
-75 109 0
-76 109 0
-77 109 0
-78 109 0
-79 109 0
-80 109 0
-81 109 0
-82 109 0
110 0
106 -109 -111 0
-106 109 -111 0
-106 -109 111 0
106 109 111 0
-3 111 0
74 112 0
75 112 0
76 112 0
77 112 0
78 112 0
79 112 0
80 112 0
81 112 0
82 112 0
-113 0
-106 112 -114 0
106 -112 -114 0
114 -112 -106 0
106 112 114 0
-4 -114 0
75 -115 -116 0
115 -75 -116 0
-75 -115 116 0
75 115 116 0
-1 -116 0
115 -76 -117 0
76 -115 -117 0
117 -115 -76 0
117 115 76 0
-2 117 0
-75 118 0
-76 118 0
-77 118 0
-78 118 0
-79 118 0
-80 118 0
-81 118 0
-82 118 0
119 0
115 -118 -120 0
-115 118 -120 0
-115 -118 120 0
115 118 120 0
-3 120 0
75 121 0
76 121 0
77 121 0
78 121 0
79 121 0
80 121 0
81 121 0
82 121 0
-122 0
-115 121 -123 0
115 -121 -123 0
123 -121 -115 0
115 121 123 0
-4 -123 0
76 -124 -125 0
124 -76 -125 0
-76 -124 125 0
76 124 125 0
-1 -125 0
124 -77 -126 0
77 -124 -126 0
126 -124 -77 0
126 124 77 0
-2 126 0
-76 127 0
-77 127 0
-78 127 0
-79 127 0
-80 127 0
-81 127 0
-82 127 0
128 0
124 -127 -129 0
-124 127 -129 0
-124 -127 129 0
124 127 129 0
-3 129 0
76 130 0
77 130 0
78 130 0
79 130 0
80 130 0
81 130 0
82 130 0
-131 0
-124 130 -132 0
124 -130 -132 0
132 -130 -124 0
124 130 132 0
-4 -132 0
77 -133 -134 0
133 -77 -134 0
-77 -133 134 0
77 133 134 0
-1 -134 0
133 -78 -135 0
78 -133 -135 0
135 -133 -78 0
135 133 78 0
-2 135 0
-77 136 0
-78 136 0
-79 136 0
-80 136 0
-81 136 0
-82 136 0
137 0
133 -136 -138 0
-133 136 -138 0
-133 -136 138 0
133 136 138 0
-3 138 0
77 139 0
78 139 0
79 139 0
80 139 0
81 139 0
82 139 0
-140 0
-133 139 -141 0
133 -139 -141 0
141 -139 -133 0
133 139 141 0
-4 -141 0
78 -142 -143 0
142 -78 -143 0
-78 -142 143 0
78 142 143 0
-1 -143 0
142 -79 -144 0
79 -142 -144 0
144 -142 -79 0
144 142 79 0
-2 144 0
142 -136 -145 0
136 -142 -145 0
-136 -142 145 0
142 136 145 0
-3 145 0
139 -142 -146 0
142 -139 -146 0
146 -139 -142 0
142 139 146 0
-4 -146 0
79 -147 -148 0
147 -79 -148 0
-79 -147 148 0
79 147 148 0
-1 -148 0
147 -80 -149 0
80 -147 -149 0
149 -147 -80 0
149 147 80 0
-2 149 0
147 -136 -150 0
136 -147 -150 0
-136 -147 150 0
147 136 150 0
-3 150 0
139 -147 -151 0
147 -139 -151 0
151 -139 -147 0
147 139 151 0
-4 -151 0
80 -152 -153 0
152 -80 -153 0
-80 -152 153 0
80 152 153 0
-1 -153 0
152 -81 -154 0
81 -152 -154 0
154 -152 -81 0
154 152 81 0
-2 154 0
152 -136 -155 0
136 -152 -155 0
-136 -152 155 0
152 136 155 0
-3 155 0
139 -152 -156 0
152 -139 -156 0
156 -139 -152 0
152 139 156 0
-4 -156 0
81 -157 -158 0
157 -81 -158 0
-81 -157 158 0
81 157 158 0
-1 -158 0
157 -82 -159 0
82 -157 -159 0
159 -157 -82 0
159 157 82 0
-2 159 0
157 -136 -160 0
136 -157 -160 0
-136 -157 160 0
157 136 160 0
-3 160 0
139 -157 -161 0
157 -139 -161 0
161 -139 -157 0
157 139 161 0
-4 -161 0
82 -162 -163 0
162 -82 -163 0
-82 -162 163 0
82 162 163 0
-1 -163 0
-77 162 -164 0
77 -162 -164 0
164 -162 -77 0
164 162 77 0
-2 164 0
-82 165 0
-133 165 0
82 133 -165 0
162 -165 -166 0
-162 165 -166 0
-162 -165 166 0
162 165 166 0
-3 166 0
82 167 0
133 167 0
-82 -133 -167 0
-162 167 -168 0
162 -167 -168 0
168 -167 -162 0
162 167 168 0
-4 -168 0
169 -170 -171 0
170 -169 -171 0
-169 -170 171 0
170 169 171 0
-1 -171 0
170 -172 -173 0
172 -170 -173 0
173 -170 -172 0
173 170 172 0
-2 173 0
-169 174 0
-172 174 0
-175 174 0
-176 174 0
-177 174 0
-178 174 0
-179 174 0
-180 174 0
-181 174 0
-182 174 0
-183 174 0
184 0
170 -174 -185 0
-170 174 -185 0
-170 -174 185 0
170 174 185 0
-3 185 0
169 186 0
172 186 0
175 186 0
176 186 0
177 186 0
178 186 0
179 186 0
180 186 0
181 186 0
182 186 0
183 186 0
-187 0
-170 186 -188 0
170 -186 -188 0
188 -186 -170 0
170 186 188 0
-4 -188 0
172 -189 -190 0
189 -172 -190 0
-172 -189 190 0
172 189 190 0
-1 -190 0
189 -175 -191 0
175 -189 -191 0
191 -189 -175 0
191 189 175 0
-2 191 0
-172 192 0
-175 192 0
-176 192 0
-177 192 0
-178 192 0
-179 192 0
-180 192 0
-181 192 0
-182 192 0
-183 192 0
193 0
189 -192 -194 0
-189 192 -194 0
-189 -192 194 0
189 192 194 0
-3 194 0
172 195 0
175 195 0
176 195 0
177 195 0
178 195 0
179 195 0
180 195 0
181 195 0
182 195 0
183 195 0
-196 0
-189 195 -197 0
189 -195 -197 0
197 -195 -189 0
189 195 197 0
-4 -197 0
175 -198 -199 0
198 -175 -199 0
-175 -198 199 0
175 198 199 0
-1 -199 0
198 -176 -200 0
176 -198 -200 0
200 -198 -176 0
200 198 176 0
-2 200 0
-175 201 0
-176 201 0
-177 201 0
-178 201 0
-179 201 0
-180 201 0
-181 201 0
-182 201 0
-183 201 0
202 0
198 -201 -203 0
-198 201 -203 0
-198 -201 203 0
198 201 203 0
-3 203 0
175 204 0
176 204 0
177 204 0
178 204 0
179 204 0
180 204 0
181 204 0
182 204 0
183 204 0
-205 0
-198 204 -206 0
198 -204 -206 0
206 -204 -198 0
198 204 206 0
-4 -206 0
176 -207 -208 0
207 -176 -208 0
-176 -207 208 0
176 207 208 0
-1 -208 0
207 -177 -209 0
177 -207 -209 0
209 -207 -177 0
209 207 177 0
-2 209 0
-176 210 0
-177 210 0
-178 210 0
-179 210 0
-180 210 0
-181 210 0
-182 210 0
-183 210 0
211 0
207 -210 -212 0
-207 210 -212 0
-207 -210 212 0
207 210 212 0
-3 212 0
176 213 0
177 213 0
178 213 0
179 213 0
180 213 0
181 213 0
182 213 0
183 213 0
-214 0
-207 213 -215 0
207 -213 -215 0
215 -213 -207 0
207 213 215 0
-4 -215 0
177 -216 -217 0
216 -177 -217 0
-177 -216 217 0
177 216 217 0
-1 -217 0
216 -178 -218 0
178 -216 -218 0
218 -216 -178 0
218 216 178 0
-2 218 0
-177 219 0
-178 219 0
-179 219 0
-180 219 0
-181 219 0
-182 219 0
-183 219 0
220 0
216 -219 -221 0
-216 219 -221 0
-216 -219 221 0
216 219 221 0
-3 221 0
177 222 0
178 222 0
179 222 0
180 222 0
181 222 0
182 222 0
183 222 0
-223 0
-216 222 -224 0
216 -222 -224 0
224 -222 -216 0
216 222 224 0
-4 -224 0
178 -225 -226 0
225 -178 -226 0
-178 -225 226 0
178 225 226 0
-1 -226 0
225 -179 -227 0
179 -225 -227 0
227 -225 -179 0
227 225 179 0
-2 227 0
-178 228 0
-179 228 0
-180 228 0
-181 228 0
-182 228 0
-183 228 0
229 0
225 -228 -230 0
-225 228 -230 0
-225 -228 230 0
225 228 230 0
-3 230 0
178 231 0
179 231 0
180 231 0
181 231 0
182 231 0
183 231 0
-232 0
-225 231 -233 0
225 -231 -233 0
233 -231 -225 0
225 231 233 0
-4 -233 0
179 -234 -235 0
234 -179 -235 0
-179 -234 235 0
179 234 235 0
-1 -235 0
234 -180 -236 0
180 -234 -236 0
236 -234 -180 0
236 234 180 0
-2 236 0
-179 237 0
-180 237 0
-181 237 0
-182 237 0
-183 237 0
179 180 181 182 183 -237 0
234 -237 -238 0
-234 237 -238 0
-234 -237 238 0
234 237 238 0
-3 238 0
179 239 0
180 239 0
181 239 0
182 239 0
183 239 0
-240 0
-234 239 -241 0
234 -239 -241 0
241 -239 -234 0
234 239 241 0
-4 -241 0
180 -242 -243 0
242 -180 -243 0
-180 -242 243 0
180 242 243 0
-1 -243 0
242 -181 -244 0
181 -242 -244 0
244 -242 -181 0
244 242 181 0
-2 244 0
242 -237 -245 0
237 -242 -245 0
-237 -242 245 0
242 237 245 0
-3 245 0
239 -242 -246 0
242 -239 -246 0
246 -239 -242 0
242 239 246 0
-4 -246 0
181 -247 -248 0
247 -181 -248 0
-181 -247 248 0
181 247 248 0
-1 -248 0
247 -182 -249 0
182 -247 -249 0
249 -247 -182 0
249 247 182 0
-2 249 0
247 -237 -250 0
237 -247 -250 0
-237 -247 250 0
247 237 250 0
-3 250 0
239 -247 -251 0
247 -239 -251 0
251 -239 -247 0
247 239 251 0
-4 -251 0
182 -252 -253 0
252 -182 -253 0
-182 -252 253 0
182 252 253 0
-1 -253 0
252 -183 -254 0
183 -252 -254 0
254 -252 -183 0
254 252 183 0
-2 254 0
252 -237 -255 0
237 -252 -255 0
-237 -252 255 0
252 237 255 0
-3 255 0
239 -252 -256 0
252 -239 -256 0
256 -239 -252 0
252 239 256 0
-4 -256 0
183 -257 -258 0
257 -183 -258 0
-183 -257 258 0
183 257 258 0
-1 -258 0
-179 257 -259 0
179 -257 -259 0
259 -257 -179 0
259 257 179 0
-2 259 0
-183 260 0
-234 260 0
183 234 -260 0
257 -260 -261 0
-257 260 -261 0
-257 -260 261 0
257 260 261 0
-3 261 0
183 262 0
234 262 0
-183 -234 -262 0
-257 262 -263 0
257 -262 -263 0
263 -262 -257 0
257 262 263 0
-4 -263 0
264 -265 -266 0
265 -264 -266 0
-264 -265 266 0
265 264 266 0
-1 -266 0
-13 265 -267 0
13 -265 -267 0
267 -265 -13 0
267 265 13 0
-2 267 0
-13 268 0
-16 268 0
-19 268 0
-20 268 0
-21 268 0
-22 268 0
-23 268 0
-264 268 0
269 0
265 -268 -270 0
-265 268 -270 0
-265 -268 270 0
265 268 270 0
-3 270 0
13 271 0
16 271 0
19 271 0
20 271 0
21 271 0
22 271 0
23 271 0
264 271 0
-272 0
-265 271 -273 0
265 -271 -273 0
273 -271 -265 0
265 271 273 0
-4 -273 0
274 -275 -276 0
275 -274 -276 0
-274 -275 276 0
275 274 276 0
-1 -276 0
275 -277 -278 0
277 -275 -278 0
278 -275 -277 0
278 275 277 0
-2 278 0
-19 279 0
-20 279 0
-21 279 0
-22 279 0
-23 279 0
-274 279 0
-277 279 0
-280 279 0
-281 279 0
282 0
275 -279 -283 0
-275 279 -283 0
-275 -279 283 0
275 279 283 0
-3 283 0
19 284 0
20 284 0
21 284 0
22 284 0
23 284 0
274 284 0
277 284 0
280 284 0
281 284 0
-285 0
-275 284 -286 0
275 -284 -286 0
286 -284 -275 0
275 284 286 0
-4 -286 0
277 -287 -288 0
287 -277 -288 0
-277 -287 288 0
277 287 288 0
-1 -288 0
287 -280 -289 0
280 -287 -289 0
289 -287 -280 0
289 287 280 0
-2 289 0
-19 290 0
-20 290 0
-21 290 0
-22 290 0
-23 290 0
-277 290 0
-280 290 0
-281 290 0
291 0
287 -290 -292 0
-287 290 -292 0
-287 -290 292 0
287 290 292 0
-3 292 0
19 293 0
20 293 0
21 293 0
22 293 0
23 293 0
277 293 0
280 293 0
281 293 0
-294 0
-287 293 -295 0
287 -293 -295 0
295 -293 -287 0
287 293 295 0
-4 -295 0
280 -296 -297 0
296 -280 -297 0
-280 -296 297 0
280 296 297 0
-1 -297 0
296 -281 -298 0
281 -296 -298 0
298 -296 -281 0
298 296 281 0
-2 298 0
-19 299 0
-20 299 0
-21 299 0
-22 299 0
-23 299 0
-280 299 0
-281 299 0
300 0
296 -299 -301 0
-296 299 -301 0
-296 -299 301 0
296 299 301 0
-3 301 0
19 302 0
20 302 0
21 302 0
22 302 0
23 302 0
280 302 0
281 302 0
-303 0
-296 302 -304 0
296 -302 -304 0
304 -302 -296 0
296 302 304 0
-4 -304 0
281 -305 -306 0
305 -281 -306 0
-281 -305 306 0
281 305 306 0
-1 -306 0
-22 305 -307 0
22 -305 -307 0
307 -305 -22 0
307 305 22 0
-2 307 0
-19 308 0
-20 308 0
-21 308 0
-22 308 0
-23 308 0
-281 308 0
19 20 21 22 23 281 -308 0
305 -308 -309 0
-305 308 -309 0
-305 -308 309 0
305 308 309 0
-3 309 0
19 310 0
20 310 0
21 310 0
22 310 0
23 310 0
281 310 0
-311 0
-305 310 -312 0
305 -310 -312 0
312 -310 -305 0
305 310 312 0
-4 -312 0
313 -314 -315 0
314 -313 -315 0
-313 -314 315 0
314 313 315 0
-1 -315 0
314 -316 -317 0
316 -314 -317 0
317 -314 -316 0
317 314 316 0
-2 317 0
-313 318 0
-316 318 0
-319 318 0
-320 318 0
-321 318 0
-322 318 0
323 0
314 -318 -324 0
-314 318 -324 0
-314 -318 324 0
314 318 324 0
-3 324 0
313 325 0
316 325 0
319 325 0
320 325 0
321 325 0
322 325 0
-326 0
-314 325 -327 0
314 -325 -327 0
327 -325 -314 0
314 325 327 0
-4 -327 0
316 -328 -329 0
328 -316 -329 0
-316 -328 329 0
316 328 329 0
-1 -329 0
328 -319 -330 0
319 -328 -330 0
330 -328 -319 0
330 328 319 0
-2 330 0
-316 331 0
-319 331 0
-320 331 0
-321 331 0
-322 331 0
316 319 320 321 322 -331 0
328 -331 -332 0
-328 331 -332 0
-328 -331 332 0
328 331 332 0
-3 332 0
316 333 0
319 333 0
320 333 0
321 333 0
322 333 0
-334 0
-328 333 -335 0
328 -333 -335 0
335 -333 -328 0
328 333 335 0
-4 -335 0
319 -336 -337 0
336 -319 -337 0
-319 -336 337 0
319 336 337 0
-1 -337 0
336 -320 -338 0
320 -336 -338 0
338 -336 -320 0
338 336 320 0
-2 338 0
336 -331 -339 0
331 -336 -339 0
-331 -336 339 0
336 331 339 0
-3 339 0
333 -336 -340 0
336 -333 -340 0
340 -333 -336 0
336 333 340 0
-4 -340 0
320 -341 -342 0
341 -320 -342 0
-320 -341 342 0
320 341 342 0
-1 -342 0
341 -321 -343 0
321 -341 -343 0
343 -341 -321 0
343 341 321 0
-2 343 0
341 -331 -344 0
331 -341 -344 0
-331 -341 344 0
341 331 344 0
-3 344 0
333 -341 -345 0
341 -333 -345 0
345 -333 -341 0
341 333 345 0
-4 -345 0
321 -346 -347 0
346 -321 -347 0
-321 -346 347 0
321 346 347 0
-1 -347 0
346 -322 -348 0
322 -346 -348 0
348 -346 -322 0
348 346 322 0
-2 348 0
346 -331 -349 0
331 -346 -349 0
-331 -346 349 0
346 331 349 0
-3 349 0
333 -346 -350 0
346 -333 -350 0
350 -333 -346 0
346 333 350 0
-4 -350 0
322 -351 -352 0
351 -322 -352 0
-322 -351 352 0
322 351 352 0
-1 -352 0
-316 351 -353 0
316 -351 -353 0
353 -351 -316 0
353 351 316 0
-2 353 0
-322 354 0
-328 354 0
322 328 -354 0
351 -354 -355 0
-351 354 -355 0
-351 -354 355 0
351 354 355 0
-3 355 0
322 356 0
328 356 0
-322 -328 -356 0
-351 356 -357 0
351 -356 -357 0
357 -356 -351 0
351 356 357 0
-4 -357 0
358 -359 -360 0
359 -358 -360 0
-358 -359 360 0
359 358 360 0
-1 -360 0
359 -361 -362 0
361 -359 -362 0
362 -359 -361 0
362 359 361 0
-2 362 0
-358 363 0
-361 363 0
-364 363 0
-365 363 0
-366 363 0
-367 363 0
-368 363 0
369 0
359 -363 -370 0
-359 363 -370 0
-359 -363 370 0
359 363 370 0
-3 370 0
358 371 0
361 371 0
364 371 0
365 371 0
366 371 0
367 371 0
368 371 0
-372 0
-359 371 -373 0
359 -371 -373 0
373 -371 -359 0
359 371 373 0
-4 -373 0
361 -374 -375 0
374 -361 -375 0
-361 -374 375 0
361 374 375 0
-1 -375 0
374 -364 -376 0
364 -374 -376 0
376 -374 -364 0
376 374 364 0
-2 376 0
-361 377 0
-364 377 0
-365 377 0
-366 377 0
-367 377 0
-368 377 0
378 0
374 -377 -379 0
-374 377 -379 0
-374 -377 379 0
374 377 379 0
-3 379 0
361 380 0
364 380 0
365 380 0
366 380 0
367 380 0
368 380 0
-381 0
-374 380 -382 0
374 -380 -382 0
382 -380 -374 0
374 380 382 0
-4 -382 0
364 -383 -384 0
383 -364 -384 0
-364 -383 384 0
364 383 384 0
-1 -384 0
383 -365 -385 0
365 -383 -385 0
385 -383 -365 0
385 383 365 0
-2 385 0
-364 386 0
-365 386 0
-366 386 0
-367 386 0
-368 386 0
364 365 366 367 368 -386 0
383 -386 -387 0
-383 386 -387 0
-383 -386 387 0
383 386 387 0
-3 387 0
364 388 0
365 388 0
366 388 0
367 388 0
368 388 0
-389 0
-383 388 -390 0
383 -388 -390 0
390 -388 -383 0
383 388 390 0
-4 -390 0
365 -391 -392 0
391 -365 -392 0
-365 -391 392 0
365 391 392 0
-1 -392 0
391 -366 -393 0
366 -391 -393 0
393 -391 -366 0
393 391 366 0
-2 393 0
-365 394 0
-366 394 0
-367 394 0
-368 394 0
365 366 367 368 -394 0
391 -394 -395 0
-391 394 -395 0
-391 -394 395 0
391 394 395 0
-3 395 0
365 396 0
366 396 0
367 396 0
368 396 0
-397 0
-391 396 -398 0
391 -396 -398 0
398 -396 -391 0
391 396 398 0
-4 -398 0
366 -399 -400 0
399 -366 -400 0
-366 -399 400 0
366 399 400 0
-1 -400 0
399 -367 -401 0
367 -399 -401 0
401 -399 -367 0
401 399 367 0
-2 401 0
399 -394 -402 0
394 -399 -402 0
-394 -399 402 0
399 394 402 0
-3 402 0
396 -399 -403 0
399 -396 -403 0
403 -396 -399 0
399 396 403 0
-4 -403 0
367 -404 -405 0
404 -367 -405 0
-367 -404 405 0
367 404 405 0
-1 -405 0
404 -368 -406 0
368 -404 -406 0
406 -404 -368 0
406 404 368 0
-2 406 0
404 -394 -407 0
394 -404 -407 0
-394 -404 407 0
404 394 407 0
-3 407 0
396 -404 -408 0
404 -396 -408 0
408 -396 -404 0
404 396 408 0
-4 -408 0
368 -409 -410 0
409 -368 -410 0
-368 -409 410 0
368 409 410 0
-1 -410 0
-365 409 -411 0
365 -409 -411 0
411 -409 -365 0
411 409 365 0
-2 411 0
-368 412 0
-391 412 0
368 391 -412 0
409 -412 -413 0
-409 412 -413 0
-409 -412 413 0
409 412 413 0
-3 413 0
368 414 0
391 414 0
-368 -391 -414 0
-409 414 -415 0
409 -414 -415 0
415 -414 -409 0
409 414 415 0
-4 -415 0
416 -417 -418 0
417 -416 -418 0
-416 -417 418 0
417 416 418 0
-1 -418 0
417 -419 -420 0
419 -417 -420 0
420 -417 -419 0
420 417 419 0
-2 420 0
-365 421 0
-366 421 0
-367 421 0
-368 421 0
-416 421 0
-419 421 0
-422 421 0
423 0
417 -421 -424 0
-417 421 -424 0
-417 -421 424 0
417 421 424 0
-3 424 0
365 425 0
366 425 0
367 425 0
368 425 0
416 425 0
419 425 0
422 425 0
-426 0
-417 425 -427 0
417 -425 -427 0
427 -425 -417 0
417 425 427 0
-4 -427 0
419 -428 -429 0
428 -419 -429 0
-419 -428 429 0
419 428 429 0
-1 -429 0
428 -422 -430 0
422 -428 -430 0
430 -428 -422 0
430 428 422 0
-2 430 0
-365 431 0
-366 431 0
-367 431 0
-368 431 0
-419 431 0
-422 431 0
432 0
428 -431 -433 0
-428 431 -433 0
-428 -431 433 0
428 431 433 0
-3 433 0
365 434 0
366 434 0
367 434 0
368 434 0
419 434 0
422 434 0
-435 0
-428 434 -436 0
428 -434 -436 0
436 -434 -428 0
428 434 436 0
-4 -436 0
422 -437 -438 0
437 -422 -438 0
-422 -437 438 0
422 437 438 0
-1 -438 0
-366 437 -439 0
366 -437 -439 0
439 -437 -366 0
439 437 366 0
-2 439 0
-365 440 0
-366 440 0
-367 440 0
-368 440 0
-422 440 0
365 366 367 368 422 -440 0
437 -440 -441 0
-437 440 -441 0
-437 -440 441 0
437 440 441 0
-3 441 0
365 442 0
366 442 0
367 442 0
368 442 0
422 442 0
-443 0
-437 442 -444 0
437 -442 -444 0
444 -442 -437 0
437 442 444 0
-4 -444 0
445 -446 -447 0
446 -445 -447 0
-445 -446 447 0
446 445 447 0
-1 -447 0
446 -448 -449 0
448 -446 -449 0
449 -446 -448 0
449 446 448 0
-2 449 0
-365 450 0
-366 450 0
-367 450 0
-368 450 0
-445 450 0
-448 450 0
-451 450 0
-452 450 0
-453 450 0
454 0
446 -450 -455 0
-446 450 -455 0
-446 -450 455 0
446 450 455 0
-3 455 0
365 456 0
366 456 0
367 456 0
368 456 0
445 456 0
448 456 0
451 456 0
452 456 0
453 456 0
-457 0
-446 456 -458 0
446 -456 -458 0
458 -456 -446 0
446 456 458 0
-4 -458 0
448 -459 -460 0
459 -448 -460 0
-448 -459 460 0
448 459 460 0
-1 -460 0
459 -451 -461 0
451 -459 -461 0
461 -459 -451 0
461 459 451 0
-2 461 0
-365 462 0
-366 462 0
-367 462 0
-368 462 0
-448 462 0
-451 462 0
-452 462 0
-453 462 0
463 0
459 -462 -464 0
-459 462 -464 0
-459 -462 464 0
459 462 464 0
-3 464 0
365 465 0
366 465 0
367 465 0
368 465 0
448 465 0
451 465 0
452 465 0
453 465 0
-466 0
-459 465 -467 0
459 -465 -467 0
467 -465 -459 0
459 465 467 0
-4 -467 0
451 -468 -469 0
468 -451 -469 0
-451 -468 469 0
451 468 469 0
-1 -469 0
468 -452 -470 0
452 -468 -470 0
470 -468 -452 0
470 468 452 0
-2 470 0
-365 471 0
-366 471 0
-367 471 0
-368 471 0
-451 471 0
-452 471 0
-453 471 0
472 0
468 -471 -473 0
-468 471 -473 0
-468 -471 473 0
468 471 473 0
-3 473 0
365 474 0
366 474 0
367 474 0
368 474 0
451 474 0
452 474 0
453 474 0
-475 0
-468 474 -476 0
468 -474 -476 0
476 -474 -468 0
468 474 476 0
-4 -476 0
452 -477 -478 0
477 -452 -478 0
-452 -477 478 0
452 477 478 0
-1 -478 0
477 -453 -479 0
453 -477 -479 0
479 -477 -453 0
479 477 453 0
-2 479 0
-365 480 0
-366 480 0
-367 480 0
-368 480 0
-452 480 0
-453 480 0
481 0
477 -480 -482 0
-477 480 -482 0
-477 -480 482 0
477 480 482 0
-3 482 0
365 483 0
366 483 0
367 483 0
368 483 0
452 483 0
453 483 0
-484 0
-477 483 -485 0
477 -483 -485 0
485 -483 -477 0
477 483 485 0
-4 -485 0
453 -486 -487 0
486 -453 -487 0
-453 -486 487 0
453 486 487 0
-1 -487 0
-367 486 -488 0
367 -486 -488 0
488 -486 -367 0
488 486 367 0
-2 488 0
-365 489 0
-366 489 0
-367 489 0
-368 489 0
-453 489 0
365 366 367 368 453 -489 0
486 -489 -490 0
-486 489 -490 0
-486 -489 490 0
486 489 490 0
-3 490 0
365 491 0
366 491 0
367 491 0
368 491 0
453 491 0
-492 0
-486 491 -493 0
486 -491 -493 0
493 -491 -486 0
486 491 493 0
-4 -493 0
494 -495 -496 0
495 -494 -496 0
-494 -495 496 0
495 494 496 0
-1 -496 0
495 -497 -498 0
497 -495 -498 0
498 -495 -497 0
498 495 497 0
-2 498 0
-494 499 0
-497 499 0
-500 499 0
-501 499 0
-502 499 0
-503 499 0
-504 499 0
-505 499 0
-506 499 0
-507 499 0
-508 499 0
509 0
495 -499 -510 0
-495 499 -510 0
-495 -499 510 0
495 499 510 0
-3 510 0
494 511 0
497 511 0
500 511 0
501 511 0
502 511 0
503 511 0
504 511 0
505 511 0
506 511 0
507 511 0
508 511 0
-512 0
-495 511 -513 0
495 -511 -513 0
513 -511 -495 0
495 511 513 0
-4 -513 0
497 -514 -515 0
514 -497 -515 0
-497 -514 515 0
497 514 515 0
-1 -515 0
514 -500 -516 0
500 -514 -516 0
516 -514 -500 0
516 514 500 0
-2 516 0
-497 517 0
-500 517 0
-501 517 0
-502 517 0
-503 517 0
-504 517 0
-505 517 0
-506 517 0
-507 517 0
-508 517 0
518 0
514 -517 -519 0
-514 517 -519 0
-514 -517 519 0
514 517 519 0
-3 519 0
497 520 0
500 520 0
501 520 0
502 520 0
503 520 0
504 520 0
505 520 0
506 520 0
507 520 0
508 520 0
-521 0
-514 520 -522 0
514 -520 -522 0
522 -520 -514 0
514 520 522 0
-4 -522 0
500 -523 -524 0
523 -500 -524 0
-500 -523 524 0
500 523 524 0
-1 -524 0
523 -501 -525 0
501 -523 -525 0
525 -523 -501 0
525 523 501 0
-2 525 0
-500 526 0
-501 526 0
-502 526 0
-503 526 0
-504 526 0
-505 526 0
-506 526 0
-507 526 0
-508 526 0
527 0
523 -526 -528 0
-523 526 -528 0
-523 -526 528 0
523 526 528 0
-3 528 0
500 529 0
501 529 0
502 529 0
503 529 0
504 529 0
505 529 0
506 529 0
507 529 0
508 529 0
-530 0
-523 529 -531 0
523 -529 -531 0
531 -529 -523 0
523 529 531 0
-4 -531 0
501 -532 -533 0
532 -501 -533 0
-501 -532 533 0
501 532 533 0
-1 -533 0
532 -502 -534 0
502 -532 -534 0
534 -532 -502 0
534 532 502 0
-2 534 0
-501 535 0
-502 535 0
-503 535 0
-504 535 0
-505 535 0
-506 535 0
-507 535 0
-508 535 0
536 0
532 -535 -537 0
-532 535 -537 0
-532 -535 537 0
532 535 537 0
-3 537 0
501 538 0
502 538 0
503 538 0
504 538 0
505 538 0
506 538 0
507 538 0
508 538 0
-539 0
-532 538 -540 0
532 -538 -540 0
540 -538 -532 0
532 538 540 0
-4 -540 0
502 -541 -542 0
541 -502 -542 0
-502 -541 542 0
502 541 542 0
-1 -542 0
541 -503 -543 0
503 -541 -543 0
543 -541 -503 0
543 541 503 0
-2 543 0
-502 544 0
-503 544 0
-504 544 0
-505 544 0
-506 544 0
-507 544 0
-508 544 0
545 0
541 -544 -546 0
-541 544 -546 0
-541 -544 546 0
541 544 546 0
-3 546 0
502 547 0
503 547 0
504 547 0
505 547 0
506 547 0
507 547 0
508 547 0
-548 0
-541 547 -549 0
541 -547 -549 0
549 -547 -541 0
541 547 549 0
-4 -549 0
503 -550 -551 0
550 -503 -551 0
-503 -550 551 0
503 550 551 0
-1 -551 0
550 -504 -552 0
504 -550 -552 0
552 -550 -504 0
552 550 504 0
-2 552 0
-503 553 0
-504 553 0
-505 553 0
-506 553 0
-507 553 0
-508 553 0
554 0
550 -553 -555 0
-550 553 -555 0
-550 -553 555 0
550 553 555 0
-3 555 0
503 556 0
504 556 0
505 556 0
506 556 0
507 556 0
508 556 0
-557 0
-550 556 -558 0
550 -556 -558 0
558 -556 -550 0
550 556 558 0
-4 -558 0
504 -559 -560 0
559 -504 -560 0
-504 -559 560 0
504 559 560 0
-1 -560 0
559 -505 -561 0
505 -559 -561 0
561 -559 -505 0
561 559 505 0
-2 561 0
559 -553 -562 0
553 -559 -562 0
-553 -559 562 0
559 553 562 0
-3 562 0
556 -559 -563 0
559 -556 -563 0
563 -556 -559 0
559 556 563 0
-4 -563 0
505 -564 -565 0
564 -505 -565 0
-505 -564 565 0
505 564 565 0
-1 -565 0
564 -506 -566 0
506 -564 -566 0
566 -564 -506 0
566 564 506 0
-2 566 0
564 -553 -567 0
553 -564 -567 0
-553 -564 567 0
564 553 567 0
-3 567 0
556 -564 -568 0
564 -556 -568 0
568 -556 -564 0
564 556 568 0
-4 -568 0
506 -569 -570 0
569 -506 -570 0
-506 -569 570 0
506 569 570 0
-1 -570 0
569 -507 -571 0
507 -569 -571 0
571 -569 -507 0
571 569 507 0
-2 571 0
569 -553 -572 0
553 -569 -572 0
-553 -569 572 0
569 553 572 0
-3 572 0
556 -569 -573 0
569 -556 -573 0
573 -556 -569 0
569 556 573 0
-4 -573 0
507 -574 -575 0
574 -507 -575 0
-507 -574 575 0
507 574 575 0
-1 -575 0
574 -508 -576 0
508 -574 -576 0
576 -574 -508 0
576 574 508 0
-2 576 0
574 -553 -577 0
553 -574 -577 0
-553 -574 577 0
574 553 577 0
-3 577 0
556 -574 -578 0
574 -556 -578 0
578 -556 -574 0
574 556 578 0
-4 -578 0
508 -579 -580 0
579 -508 -580 0
-508 -579 580 0
508 579 580 0
-1 -580 0
-503 579 -581 0
503 -579 -581 0
581 -579 -503 0
581 579 503 0
-2 581 0
-508 582 0
-550 582 0
508 550 -582 0
579 -582 -583 0
-579 582 -583 0
-579 -582 583 0
579 582 583 0
-3 583 0
508 584 0
550 584 0
-508 -550 -584 0
-579 584 -585 0
579 -584 -585 0
585 -584 -579 0
579 584 585 0
-4 -585 0
-5 586 -587 0
5 -586 -587 0
-5 -586 587 0
5 586 587 0
-587 0
-13 588 -589 0
13 -588 -589 0
-13 -588 589 0
13 588 589 0
-589 0
-16 590 -591 0
16 -590 -591 0
-16 -590 591 0
16 590 591 0
-591 0
-19 592 -593 0
19 -592 -593 0
-19 -592 593 0
19 592 593 0
-593 0
-20 594 -595 0
20 -594 -595 0
-20 -594 595 0
20 594 595 0
-595 0
-21 596 -597 0
21 -596 -597 0
-21 -596 597 0
21 596 597 0
-597 0
-22 598 -599 0
22 -598 -599 0
-22 -598 599 0
22 598 599 0
-599 0
-23 600 -601 0
23 -600 -601 0
-23 -600 601 0
23 600 601 0
-601 0
-67 602 -603 0
67 -602 -603 0
-67 -602 603 0
67 602 603 0
-603 0
-70 604 -605 0
70 -604 -605 0
-70 -604 605 0
70 604 605 0
-605 0
-73 606 -607 0
73 -606 -607 0
-73 -606 607 0
73 606 607 0
-607 0
-74 608 -609 0
74 -608 -609 0
-74 -608 609 0
74 608 609 0
-609 0
-75 610 -611 0
75 -610 -611 0
-75 -610 611 0
75 610 611 0
-611 0
-76 612 -613 0
76 -612 -613 0
-76 -612 613 0
76 612 613 0
-613 0
-77 614 -615 0
77 -614 -615 0
-77 -614 615 0
77 614 615 0
-615 0
-78 616 -617 0
78 -616 -617 0
-78 -616 617 0
78 616 617 0
-617 0
-79 618 -619 0
79 -618 -619 0
-79 -618 619 0
79 618 619 0
-619 0
-80 620 -621 0
80 -620 -621 0
-80 -620 621 0
80 620 621 0
-621 0
-81 622 -623 0
81 -622 -623 0
-81 -622 623 0
81 622 623 0
-623 0
-82 624 -625 0
82 -624 -625 0
-82 -624 625 0
82 624 625 0
-625 0
-169 626 -627 0
169 -626 -627 0
-169 -626 627 0
169 626 627 0
-627 0
-172 628 -629 0
172 -628 -629 0
-172 -628 629 0
172 628 629 0
-629 0
-175 630 -631 0
175 -630 -631 0
-175 -630 631 0
175 630 631 0
-631 0
-176 632 -633 0
176 -632 -633 0
-176 -632 633 0
176 632 633 0
-633 0
-177 634 -635 0
177 -634 -635 0
-177 -634 635 0
177 634 635 0
-635 0
-178 636 -637 0
178 -636 -637 0
-178 -636 637 0
178 636 637 0
-637 0
-179 638 -639 0
179 -638 -639 0
-179 -638 639 0
179 638 639 0
-639 0
-180 640 -641 0
180 -640 -641 0
-180 -640 641 0
180 640 641 0
-641 0
-181 642 -643 0
181 -642 -643 0
-181 -642 643 0
181 642 643 0
-643 0
-182 644 -645 0
182 -644 -645 0
-182 -644 645 0
182 644 645 0
-645 0
-183 646 -647 0
183 -646 -647 0
-183 -646 647 0
183 646 647 0
-647 0
-264 648 -649 0
264 -648 -649 0
-264 -648 649 0
264 648 649 0
-649 0
-274 650 -651 0
274 -650 -651 0
-274 -650 651 0
274 650 651 0
-651 0
-277 652 -653 0
277 -652 -653 0
-277 -652 653 0
277 652 653 0
-653 0
-280 654 -655 0
280 -654 -655 0
-280 -654 655 0
280 654 655 0
-655 0
-281 656 -657 0
281 -656 -657 0
-281 -656 657 0
281 656 657 0
-657 0
-313 658 -659 0
313 -658 -659 0
-313 -658 659 0
313 658 659 0
-659 0
-316 660 -661 0
316 -660 -661 0
-316 -660 661 0
316 660 661 0
-661 0
-319 662 -663 0
319 -662 -663 0
-319 -662 663 0
319 662 663 0
-663 0
-320 664 -665 0
320 -664 -665 0
-320 -664 665 0
320 664 665 0
-665 0
-321 666 -667 0
321 -666 -667 0
-321 -666 667 0
321 666 667 0
-667 0
-322 668 -669 0
322 -668 -669 0
-322 -668 669 0
322 668 669 0
-669 0
-358 670 -671 0
358 -670 -671 0
-358 -670 671 0
358 670 671 0
-671 0
-361 672 -673 0
361 -672 -673 0
-361 -672 673 0
361 672 673 0
-673 0
-364 674 -675 0
364 -674 -675 0
-364 -674 675 0
364 674 675 0
-675 0
-365 676 -677 0
365 -676 -677 0
-365 -676 677 0
365 676 677 0
-677 0
-366 678 -679 0
366 -678 -679 0
-366 -678 679 0
366 678 679 0
-679 0
-367 680 -681 0
367 -680 -681 0
-367 -680 681 0
367 680 681 0
-681 0
-368 682 -683 0
368 -682 -683 0
-368 -682 683 0
368 682 683 0
-683 0
-416 684 -685 0
416 -684 -685 0
-416 -684 685 0
416 684 685 0
-685 0
-419 686 -687 0
419 -686 -687 0
-419 -686 687 0
419 686 687 0
-687 0
-422 688 -689 0
422 -688 -689 0
-422 -688 689 0
422 688 689 0
-689 0
-445 690 -691 0
445 -690 -691 0
-445 -690 691 0
445 690 691 0
-691 0
-448 692 -693 0
448 -692 -693 0
-448 -692 693 0
448 692 693 0
-693 0
-451 694 -695 0
451 -694 -695 0
-451 -694 695 0
451 694 695 0
-695 0
-452 696 -697 0
452 -696 -697 0
-452 -696 697 0
452 696 697 0
-697 0
-453 698 -699 0
453 -698 -699 0
-453 -698 699 0
453 698 699 0
-699 0
-494 700 -701 0
494 -700 -701 0
-494 -700 701 0
494 700 701 0
-701 0
-497 702 -703 0
497 -702 -703 0
-497 -702 703 0
497 702 703 0
-703 0
-500 704 -705 0
500 -704 -705 0
-500 -704 705 0
500 704 705 0
-705 0
-501 706 -707 0
501 -706 -707 0
-501 -706 707 0
501 706 707 0
-707 0
-502 708 -709 0
502 -708 -709 0
-502 -708 709 0
502 708 709 0
-709 0
-503 710 -711 0
503 -710 -711 0
-503 -710 711 0
503 710 711 0
-711 0
-504 712 -713 0
504 -712 -713 0
-504 -712 713 0
504 712 713 0
-713 0
-505 714 -715 0
505 -714 -715 0
-505 -714 715 0
505 714 715 0
-715 0
-506 716 -717 0
506 -716 -717 0
-506 -716 717 0
506 716 717 0
-717 0
-507 718 -719 0
507 -718 -719 0
-507 -718 719 0
507 718 719 0
-719 0
-508 720 -721 0
508 -720 -721 0
-508 -720 721 0
508 720 721 0
-721 0
6 0
-14 0
-68 0
-170 0
-265 0
-275 0
-314 0
-359 0
-417 0
-446 0
-495 0
